NAME : pr264
TYPE : OP
DIMENSION : 264
COST_LIMIT : 34395
ROUTE_NODES : 191
ROUTE_SCORE : 10166
ROUTE_COST : 34349
NODE_SEQUENCE_SECTION
1
40
38
37
61
60
121
120
119
145
165
164
163
225
224
238
237
240
239
223
222
168
167
166
144
143
171
170
169
221
220
242
244
243
219
218
174
173
172
142
141
175
176
177
216
217
245
247
248
214
215
178
179
180
140
139
181
182
183
212
213
249
250
252
210
211
184
185
186
138
137
187
188
189
208
255
256
206
207
190
191
192
135
195
194
193
205
204
258
257
260
259
203
202
201
198
197
196
134
199
133
132
88
87
86
83
84
82
6
5
2
3
4
8
7
81
80
91
90
89
94
93
92
79
78
12
11
10
13
77
76
97
96
95
100
99
98
75
74
18
17
16
21
20
19
73
72
103
102
101
106
105
104
71
70
24
23
22
27
26
25
69
68
109
108
107
112
111
110
67
66
30
29
28
33
32
31
65
64
115
114
113
118
117
116
63
62
36
35
34
39
-1
DEPOT_SECTION
1
-1
EOF
